c File: instances/40_0.30_1.col
c
c Description: Random graph of size 40 vertices and P(0.3) of edges between any two vertices.
p col 40 780
e 1 4
e 1 14
e 1 18
e 1 22
e 1 25
e 1 35
e 1 37
e 1 40
e 2 4
e 2 9
e 2 11
e 2 18
e 2 19
e 2 22
e 2 24
e 2 27
e 2 28
e 2 30
e 3 7
e 3 8
e 3 11
e 3 15
e 3 16
e 3 26
e 3 27
e 3 30
e 3 31
e 4 5
e 4 6
e 4 14
e 4 21
e 4 22
e 4 27
e 4 29
e 4 31
e 4 33
e 4 37
e 5 13
e 5 15
e 5 16
e 5 21
e 5 24
e 5 28
e 5 29
e 5 31
e 5 36
e 5 39
e 6 8
e 6 10
e 6 23
e 6 28
e 6 35
e 6 38
e 7 8
e 7 11
e 7 15
e 7 17
e 7 23
e 7 26
e 7 29
e 7 36
e 7 40
e 8 12
e 8 13
e 8 15
e 8 20
e 8 21
e 8 22
e 8 25
e 8 26
e 8 27
e 8 35
e 8 36
e 8 38
e 9 13
e 9 18
e 9 20
e 9 24
e 9 26
e 9 28
e 9 32
e 9 35
e 10 15
e 10 16
e 10 19
e 10 20
e 10 22
e 10 23
e 10 28
e 10 29
e 10 33
e 10 36
e 10 37
e 11 15
e 11 18
e 11 21
e 11 24
e 11 25
e 11 29
e 11 35
e 11 38
e 12 20
e 12 21
e 12 27
e 12 28
e 12 31
e 12 33
e 12 34
e 12 36
e 12 37
e 13 15
e 13 18
e 13 26
e 13 29
e 13 36
e 13 39
e 14 15
e 14 25
e 14 28
e 14 31
e 14 33
e 14 34
e 14 38
e 14 39
e 14 40
e 15 17
e 15 20
e 15 27
e 15 31
e 15 34
e 15 38
e 16 20
e 16 24
e 16 32
e 16 34
e 16 37
e 17 20
e 17 22
e 17 23
e 17 32
e 17 34
e 17 37
e 17 38
e 17 39
e 18 19
e 18 21
e 18 26
e 18 28
e 18 36
e 18 38
e 18 40
e 19 23
e 19 27
e 19 31
e 19 33
e 19 36
e 20 22
e 20 23
e 20 33
e 20 34
e 20 35
e 20 36
e 20 38
e 20 39
e 21 27
e 21 37
e 21 39
e 21 40
e 22 26
e 22 27
e 22 28
e 22 30
e 22 33
e 22 35
e 23 26
e 23 28
e 23 30
e 23 31
e 23 33
e 23 34
e 24 26
e 24 32
e 24 36
e 24 37
e 24 40
e 25 34
e 25 35
e 25 36
e 25 37
e 25 38
e 26 28
e 26 29
e 26 36
e 26 39
e 26 40
e 27 28
e 27 36
e 27 37
e 27 40
e 28 32
e 28 37
e 28 39
e 29 32
e 29 35
e 29 37
e 29 38
e 30 33
e 30 35
e 31 34
e 32 33
e 33 36
e 33 37
e 33 38
e 33 39
e 34 37
e 34 38
e 34 39
e 34 40
e 35 39
e 36 37
e 36 38
e 37 39
e 38 39
e 38 40